p min 49 520
n 26 -769230.0
n 27 98901.0
n 28 98901.0
n 29 98901.0
n 30 98901.0
n 31 98901.0
n 35 54945.0
n 40 65934.0
n 41 32967.0
n 42 32967.0
n 43 32967.0
n 44 21978.0
n 45 32967.0
a 0 1 0 769230.0 20.0
a 0 1 0 769230.0 15.0
a 0 2 0 769230.0 15.0
a 0 3 0 769230.0 14.0
a 0 4 0 769230.0 1.0
a 0 4 0 0.0 0.0
a 0 8 0 769230.0 49391.0
a 0 42 0 769230.0 71899.0
a 0 42 0 0.0 0.0
a 0 1 0 0.0 0.0
a 0 1 0 0.0 0.0
a 0 2 0 769230.0 15.0
a 0 2 0 0.0 0.0
a 0 2 0 0.0 0.0
a 0 3 0 769230.0 17.0
a 0 3 0 0.0 0.0
a 0 3 0 0.0 0.0
a 0 4 0 769230.0 1.0
a 0 4 0 0.0 0.0
a 0 8 0 0.0 0.0
a 0 8 0 0.0 0.0
a 0 8 0 769230.0 51824.0
a 0 42 0 769230.0 71328.0
a 0 42 0 0.0 0.0
a 1 2 0 769230.0 17.0
a 1 0 0 0.0 0.0
a 1 0 0 0.0 0.0
a 1 0 0 769230.0 15.0
a 1 0 0 769230.0 20.0
a 1 2 0 769230.0 17.0
a 1 3 0 769230.0 17.0
a 1 4 0 769230.0 2.0
a 1 20 0 769230.0 393817.0
a 1 39 0 769230.0 367472.0
a 1 2 0 0.0 0.0
a 1 2 0 0.0 0.0
a 1 3 0 769230.0 18.0
a 1 3 0 0.0 0.0
a 1 3 0 0.0 0.0
a 1 4 0 769230.0 2.0
a 1 4 0 0.0 0.0
a 1 4 0 0.0 0.0
a 1 20 0 769230.0 394703.0
a 1 20 0 0.0 0.0
a 1 20 0 0.0 0.0
a 1 39 0 769230.0 373979.0
a 1 39 0 0.0 0.0
a 1 39 0 0.0 0.0
a 2 3 0 769230.0 11.0
a 2 1 0 0.0 0.0
a 2 0 0 0.0 0.0
a 2 1 0 0.0 0.0
a 2 0 0 0.0 0.0
a 2 0 0 769230.0 15.0
a 2 0 0 769230.0 15.0
a 2 1 0 769230.0 17.0
a 2 1 0 769230.0 17.0
a 2 3 0 769230.0 11.0
a 2 4 0 769230.0 1.0
a 2 16 0 769230.0 126810.0
a 2 32 0 769230.0 366448.0
a 2 3 0 0.0 0.0
a 2 3 0 0.0 0.0
a 2 4 0 769230.0 1.0
a 2 4 0 0.0 0.0
a 2 4 0 0.0 0.0
a 2 16 0 0.0 0.0
a 2 16 0 0.0 0.0
a 2 16 0 769230.0 126271.0
a 2 32 0 769230.0 361982.0
a 2 32 0 0.0 0.0
a 2 32 0 0.0 0.0
a 3 27 0 769230.0 366119.0
a 3 2 0 0.0 0.0
a 3 0 0 0.0 0.0
a 3 1 0 0.0 0.0
a 3 2 0 0.0 0.0
a 3 0 0 0.0 0.0
a 3 0 0 769230.0 17.0
a 3 0 0 769230.0 14.0
a 3 1 0 0.0 0.0
a 3 1 0 769230.0 18.0
a 3 1 0 769230.0 17.0
a 3 2 0 769230.0 11.0
a 3 2 0 769230.0 11.0
a 3 4 0 769230.0 1.0
a 3 14 0 769230.0 72397.0
a 3 27 0 769230.0 361464.0
a 3 4 0 769230.0 1.0
a 3 4 0 0.0 0.0
a 3 4 0 0.0 0.0
a 3 14 0 769230.0 72603.0
a 3 14 0 0.0 0.0
a 3 14 0 0.0 0.0
a 3 27 0 0.0 0.0
a 3 27 0 0.0 0.0
a 4 0 0 0.0 0.0
a 4 0 0 769230.0 1.0
a 4 1 0 0.0 0.0
a 4 2 0 0.0 0.0
a 4 3 0 0.0 0.0
a 4 0 0 0.0 0.0
a 4 0 0 769230.0 1.0
a 4 1 0 0.0 0.0
a 4 1 0 769230.0 2.0
a 4 1 0 769230.0 2.0
a 4 2 0 0.0 0.0
a 4 2 0 769230.0 1.0
a 4 2 0 769230.0 1.0
a 4 3 0 0.0 0.0
a 4 3 0 769230.0 1.0
a 4 3 0 769230.0 1.0
a 5 6 0 769230.0 16.0
a 5 6 0 769230.0 17.0
a 5 7 0 769230.0 1.0
a 5 7 0 0.0 0.0
a 5 10 0 769230.0 366207.0
a 5 20 0 769230.0 8016.0
a 5 6 0 0.0 0.0
a 5 6 0 0.0 0.0
a 5 7 0 769230.0 1.0
a 5 7 0 0.0 0.0
a 5 10 0 769230.0 364875.0
a 5 10 0 0.0 0.0
a 5 10 0 0.0 0.0
a 5 20 0 769230.0 8113.0
a 5 20 0 0.0 0.0
a 5 20 0 0.0 0.0
a 6 29 0 769230.0 37111.0
a 6 5 0 0.0 0.0
a 6 5 0 0.0 0.0
a 6 5 0 769230.0 17.0
a 6 5 0 769230.0 16.0
a 6 7 0 769230.0 1.0
a 6 29 0 769230.0 37473.0
a 6 37 0 769230.0 36947.0
a 6 7 0 769230.0 1.0
a 6 7 0 0.0 0.0
a 6 7 0 0.0 0.0
a 6 29 0 0.0 0.0
a 6 29 0 0.0 0.0
a 6 37 0 769230.0 36925.0
a 6 37 0 0.0 0.0
a 6 37 0 0.0 0.0
a 7 5 0 0.0 0.0
a 7 5 0 769230.0 1.0
a 7 6 0 0.0 0.0
a 7 5 0 0.0 0.0
a 7 5 0 769230.0 1.0
a 7 6 0 0.0 0.0
a 7 6 0 769230.0 1.0
a 7 6 0 769230.0 1.0
a 8 9 0 769230.0 18.0
a 8 0 0 0.0 0.0
a 8 0 0 769230.0 51824.0
a 8 0 0 769230.0 49391.0
a 8 0 0 0.0 0.0
a 8 9 0 769230.0 17.0
a 8 10 0 769230.0 33.0
a 8 11 0 769230.0 31.0
a 8 12 0 769230.0 2.0
a 8 12 0 0.0 0.0
a 8 25 0 769230.0 417838.0
a 8 9 0 0.0 0.0
a 8 9 0 0.0 0.0
a 8 10 0 769230.0 21.0
a 8 10 0 0.0 0.0
a 8 10 0 0.0 0.0
a 8 11 0 769230.0 23.0
a 8 11 0 0.0 0.0
a 8 11 0 0.0 0.0
a 8 12 0 769230.0 2.0
a 8 12 0 0.0 0.0
a 8 25 0 769230.0 414538.0
a 8 25 0 0.0 0.0
a 8 25 0 0.0 0.0
a 9 10 0 769230.0 25.0
a 9 8 0 0.0 0.0
a 9 8 0 0.0 0.0
a 9 8 0 769230.0 17.0
a 9 8 0 769230.0 18.0
a 9 10 0 769230.0 34.0
a 9 11 0 769230.0 31.0
a 9 12 0 769230.0 2.0
a 9 14 0 769230.0 98132.0
a 9 17 0 769230.0 156278.0
a 9 35 0 769230.0 238194.0
a 9 10 0 0.0 0.0
a 9 10 0 0.0 0.0
a 9 11 0 769230.0 24.0
a 9 11 0 0.0 0.0
a 9 11 0 0.0 0.0
a 9 12 0 769230.0 2.0
a 9 12 0 0.0 0.0
a 9 12 0 0.0 0.0
a 9 14 0 769230.0 99434.0
a 9 14 0 0.0 0.0
a 9 14 0 0.0 0.0
a 9 17 0 769230.0 154630.0
a 9 17 0 0.0 0.0
a 9 17 0 0.0 0.0
a 9 35 0 769230.0 240941.0
a 9 35 0 0.0 0.0
a 9 35 0 0.0 0.0
a 10 28 0 769230.0 338780.0
a 10 9 0 0.0 0.0
a 10 5 0 0.0 0.0
a 10 8 0 0.0 0.0
a 10 9 0 0.0 0.0
a 10 5 0 0.0 0.0
a 10 5 0 769230.0 364875.0
a 10 5 0 769230.0 366207.0
a 10 8 0 0.0 0.0
a 10 8 0 769230.0 21.0
a 10 8 0 769230.0 33.0
a 10 9 0 769230.0 34.0
a 10 9 0 769230.0 25.0
a 10 11 0 769230.0 15.0
a 10 12 0 769230.0 2.0
a 10 28 0 769230.0 351810.0
a 10 11 0 769230.0 14.0
a 10 11 0 0.0 0.0
a 10 11 0 0.0 0.0
a 10 12 0 769230.0 2.0
a 10 12 0 0.0 0.0
a 10 12 0 0.0 0.0
a 10 28 0 0.0 0.0
a 10 28 0 0.0 0.0
a 11 21 0 769230.0 366125.0
a 11 8 0 0.0 0.0
a 11 9 0 0.0 0.0
a 11 10 0 0.0 0.0
a 11 8 0 0.0 0.0
a 11 8 0 769230.0 23.0
a 11 8 0 769230.0 31.0
a 11 9 0 0.0 0.0
a 11 9 0 769230.0 24.0
a 11 9 0 769230.0 31.0
a 11 10 0 0.0 0.0
a 11 10 0 769230.0 14.0
a 11 10 0 769230.0 15.0
a 11 12 0 769230.0 3.0
a 11 21 0 769230.0 370109.0
a 11 31 0 769230.0 346952.0
a 11 38 0 769230.0 341390.0
a 11 12 0 769230.0 3.0
a 11 12 0 0.0 0.0
a 11 12 0 0.0 0.0
a 11 21 0 0.0 0.0
a 11 21 0 0.0 0.0
a 11 31 0 769230.0 343268.0
a 11 31 0 0.0 0.0
a 11 31 0 0.0 0.0
a 11 38 0 769230.0 343855.0
a 11 38 0 0.0 0.0
a 11 38 0 0.0 0.0
a 12 8 0 0.0 0.0
a 12 8 0 769230.0 2.0
a 12 9 0 0.0 0.0
a 12 10 0 0.0 0.0
a 12 11 0 0.0 0.0
a 12 8 0 0.0 0.0
a 12 8 0 769230.0 2.0
a 12 9 0 0.0 0.0
a 12 9 0 769230.0 2.0
a 12 9 0 769230.0 2.0
a 12 10 0 0.0 0.0
a 12 10 0 769230.0 2.0
a 12 10 0 769230.0 2.0
a 12 11 0 0.0 0.0
a 12 11 0 769230.0 3.0
a 12 11 0 769230.0 3.0
a 13 14 0 769230.0 19.0
a 13 14 0 769230.0 25.0
a 13 15 0 769230.0 1.0
a 13 31 0 769230.0 424512.0
a 13 35 0 769230.0 141666.0
a 13 38 0 769230.0 443283.0
a 13 14 0 0.0 0.0
a 13 14 0 0.0 0.0
a 13 15 0 769230.0 1.0
a 13 15 0 0.0 0.0
a 13 15 0 0.0 0.0
a 13 31 0 769230.0 428976.0
a 13 31 0 0.0 0.0
a 13 31 0 0.0 0.0
a 13 35 0 769230.0 143644.0
a 13 35 0 0.0 0.0
a 13 35 0 0.0 0.0
a 13 38 0 769230.0 427438.0
a 13 38 0 0.0 0.0
a 13 38 0 0.0 0.0
a 14 15 0 769230.0 1.0
a 14 13 0 0.0 0.0
a 14 3 0 0.0 0.0
a 14 9 0 0.0 0.0
a 14 13 0 0.0 0.0
a 14 3 0 0.0 0.0
a 14 3 0 769230.0 72603.0
a 14 3 0 769230.0 72397.0
a 14 9 0 0.0 0.0
a 14 9 0 769230.0 99434.0
a 14 9 0 769230.0 98132.0
a 14 13 0 769230.0 25.0
a 14 13 0 769230.0 19.0
a 14 15 0 769230.0 1.0
a 14 42 0 769230.0 11014.0
a 14 47 0 769230.0 321204.0
a 14 15 0 0.0 0.0
a 14 15 0 0.0 0.0
a 14 42 0 769230.0 10987.0
a 14 42 0 0.0 0.0
a 14 42 0 0.0 0.0
a 14 47 0 1450548.0 320017.0
a 14 47 0 1362636.0 0.0
a 14 47 0 2043954.0 0.0
a 15 14 0 0.0 0.0
a 15 13 0 0.0 0.0
a 15 14 0 0.0 0.0
a 15 13 0 0.0 0.0
a 15 13 0 769230.0 1.0
a 15 13 0 769230.0 1.0
a 15 14 0 769230.0 1.0
a 15 14 0 769230.0 1.0
a 16 17 0 769230.0 13.0
a 16 2 0 0.0 0.0
a 16 2 0 769230.0 126271.0
a 16 2 0 769230.0 126810.0
a 16 2 0 0.0 0.0
a 16 17 0 769230.0 25.0
a 16 18 0 769230.0 2.0
a 16 18 0 0.0 0.0
a 16 39 0 769230.0 486672.0
a 16 17 0 0.0 0.0
a 16 17 0 0.0 0.0
a 16 18 0 769230.0 2.0
a 16 18 0 0.0 0.0
a 16 39 0 769230.0 492842.0
a 16 39 0 0.0 0.0
a 16 39 0 0.0 0.0
a 17 45 0 769230.0 82541.0
a 17 16 0 0.0 0.0
a 17 9 0 0.0 0.0
a 17 16 0 0.0 0.0
a 17 9 0 0.0 0.0
a 17 9 0 769230.0 154630.0
a 17 9 0 769230.0 156278.0
a 17 16 0 769230.0 25.0
a 17 16 0 769230.0 13.0
a 17 18 0 769230.0 1.0
a 17 34 0 769230.0 84536.0
a 17 45 0 769230.0 84290.0
a 17 18 0 769230.0 1.0
a 17 18 0 0.0 0.0
a 17 18 0 0.0 0.0
a 17 34 0 0.0 0.0
a 17 34 0 0.0 0.0
a 17 34 0 769230.0 83698.0
a 17 45 0 0.0 0.0
a 17 45 0 0.0 0.0
a 18 16 0 0.0 0.0
a 18 16 0 769230.0 2.0
a 18 17 0 0.0 0.0
a 18 16 0 0.0 0.0
a 18 16 0 769230.0 2.0
a 18 17 0 0.0 0.0
a 18 17 0 769230.0 1.0
a 18 17 0 769230.0 1.0
a 19 20 0 769230.0 9.0
a 19 20 0 769230.0 18.0
a 19 21 0 769230.0 14.0
a 19 22 0 769230.0 7.0
a 19 23 0 769230.0 1.0
a 19 23 0 0.0 0.0
a 19 40 0 769230.0 40495.0
a 19 20 0 0.0 0.0
a 19 20 0 0.0 0.0
a 19 21 0 769230.0 14.0
a 19 21 0 0.0 0.0
a 19 21 0 0.0 0.0
a 19 22 0 769230.0 7.0
a 19 22 0 0.0 0.0
a 19 22 0 0.0 0.0
a 19 23 0 769230.0 1.0
a 19 23 0 0.0 0.0
a 19 40 0 769230.0 40280.0
a 19 40 0 0.0 0.0
a 19 40 0 0.0 0.0
a 20 19 0 0.0 0.0
a 20 1 0 0.0 0.0
a 20 5 0 0.0 0.0
a 20 19 0 0.0 0.0
a 20 1 0 0.0 0.0
a 20 1 0 769230.0 394703.0
a 20 1 0 769230.0 393817.0
a 20 5 0 0.0 0.0
a 20 5 0 769230.0 8113.0
a 20 5 0 769230.0 8016.0
a 20 19 0 769230.0 18.0
a 20 19 0 769230.0 9.0
a 20 21 0 769230.0 23.0
a 20 22 0 769230.0 19.0
a 20 23 0 769230.0 1.0
a 20 21 0 769230.0 15.0
a 20 21 0 0.0 0.0
a 20 21 0 0.0 0.0
a 20 22 0 769230.0 12.0
a 20 22 0 0.0 0.0
a 20 22 0 0.0 0.0
a 20 23 0 769230.0 1.0
a 20 23 0 0.0 0.0
a 20 23 0 0.0 0.0
a 21 22 0 769230.0 20.0
a 21 11 0 0.0 0.0
a 21 11 0 0.0 0.0
a 21 19 0 0.0 0.0
a 21 20 0 0.0 0.0
a 21 11 0 769230.0 370109.0
a 21 11 0 769230.0 366125.0
a 21 19 0 0.0 0.0
a 21 19 0 769230.0 14.0
a 21 19 0 769230.0 14.0
a 21 20 0 0.0 0.0
a 21 20 0 769230.0 15.0
a 21 20 0 769230.0 23.0
a 21 22 0 769230.0 19.0
a 21 23 0 769230.0 1.0
a 21 22 0 0.0 0.0
a 21 22 0 0.0 0.0
a 21 23 0 769230.0 1.0
a 21 23 0 0.0 0.0
a 21 23 0 0.0 0.0
a 22 21 0 0.0 0.0
a 22 19 0 0.0 0.0
a 22 20 0 0.0 0.0
a 22 21 0 0.0 0.0
a 22 19 0 0.0 0.0
a 22 19 0 769230.0 7.0
a 22 19 0 769230.0 7.0
a 22 20 0 0.0 0.0
a 22 20 0 769230.0 12.0
a 22 20 0 769230.0 19.0
a 22 21 0 769230.0 19.0
a 22 21 0 769230.0 20.0
a 22 23 0 769230.0 1.0
a 22 27 0 769230.0 40793.0
a 22 23 0 769230.0 1.0
a 22 23 0 0.0 0.0
a 22 23 0 0.0 0.0
a 22 27 0 769230.0 40989.0
a 22 27 0 0.0 0.0
a 22 27 0 0.0 0.0
a 23 19 0 0.0 0.0
a 23 19 0 769230.0 1.0
a 23 20 0 0.0 0.0
a 23 21 0 0.0 0.0
a 23 22 0 0.0 0.0
a 23 19 0 0.0 0.0
a 23 19 0 769230.0 1.0
a 23 20 0 0.0 0.0
a 23 20 0 769230.0 1.0
a 23 20 0 769230.0 1.0
a 23 21 0 0.0 0.0
a 23 21 0 769230.0 1.0
a 23 21 0 769230.0 1.0
a 23 22 0 0.0 0.0
a 23 22 0 769230.0 1.0
a 23 22 0 769230.0 1.0
a 24 30 0 769230.0 751232.0
a 24 25 0 769230.0 10.0
a 24 26 0 769230.0 1.0
a 24 30 0 769230.0 758666.0
a 24 47 0 769230.0 4.0
a 24 48 0 769230.0 4.0
a 24 25 0 769230.0 7.0
a 24 25 0 0.0 0.0
a 24 25 0 0.0 0.0
a 24 26 0 769230.0 1.0
a 24 26 0 0.0 0.0
a 24 26 0 0.0 0.0
a 24 30 0 0.0 0.0
a 24 30 0 0.0 0.0
a 24 47 0 769230.0 4.0
a 24 47 0 0.0 0.0
a 24 47 0 0.0 0.0
a 24 48 0 769230.0 4.0
a 24 48 0 0.0 0.0
a 24 48 0 0.0 0.0
a 25 26 0 769230.0 1.0
a 25 8 0 0.0 0.0
a 25 24 0 0.0 0.0
a 25 8 0 0.0 0.0
a 25 8 0 769230.0 414538.0
a 25 8 0 769230.0 417838.0
a 25 24 0 0.0 0.0
a 25 24 0 769230.0 7.0
a 25 24 0 769230.0 10.0
a 25 26 0 769230.0 1.0
a 25 47 0 769230.0 6.0
a 25 48 0 769230.0 7.0
a 25 26 0 0.0 0.0
a 25 26 0 0.0 0.0
a 25 47 0 769230.0 5.0
a 25 47 0 0.0 0.0
a 25 47 0 0.0 0.0
a 25 48 0 769230.0 5.0
a 25 48 0 0.0 0.0
a 25 48 0 0.0 0.0
a 26 25 0 0.0 0.0
a 26 24 0 0.0 0.0
a 26 25 0 0.0 0.0
a 26 24 0 0.0 0.0
a 26 24 0 769230.0 1.0
a 26 24 0 769230.0 1.0
a 26 25 0 769230.0 1.0
a 26 25 0 769230.0 1.0
a 26 47 0 -593406.0 1.0
a 26 48 0 505494.0 1.0
a 26 47 0 87912.0 1.0
a 26 47 0 0.0 0.0
a 26 47 0 -2043954.0 0.0
a 26 48 0 769230.0 1.0
a 26 48 0 0.0 0.0
a 26 48 0 -87912.0 0.0
a 27 3 0 0.0 0.0
a 27 3 0 0.0 0.0
a 27 22 0 0.0 0.0
a 27 3 0 769230.0 361464.0
a 27 3 0 769230.0 366119.0
a 27 22 0 0.0 0.0
a 27 22 0 769230.0 40989.0
a 27 22 0 769230.0 40793.0
a 27 28 0 769230.0 20.0
a 27 29 0 769230.0 23.0
a 27 30 0 769230.0 20.0
a 27 31 0 769230.0 21.0
a 27 32 0 769230.0 14.0
a 27 33 0 769230.0 1.0
a 27 33 0 0.0 0.0
a 27 43 0 769230.0 16399.0
a 27 43 0 0.0 0.0
a 27 28 0 769230.0 12.0
a 27 28 0 0.0 0.0
a 27 28 0 0.0 0.0
a 27 29 0 769230.0 13.0
a 27 29 0 0.0 0.0
a 27 29 0 0.0 0.0
a 27 30 0 769230.0 13.0
a 27 30 0 0.0 0.0
a 27 30 0 0.0 0.0
a 27 31 0 769230.0 14.0
a 27 31 0 0.0 0.0
a 27 31 0 0.0 0.0
a 27 32 0 769230.0 13.0
a 27 32 0 0.0 0.0
a 27 32 0 0.0 0.0
a 27 33 0 769230.0 1.0
a 27 33 0 0.0 0.0
a 27 43 0 769230.0 16420.0
a 27 43 0 0.0 0.0
a 28 10 0 0.0 0.0
a 28 10 0 0.0 0.0
a 28 27 0 0.0 0.0
a 28 10 0 769230.0 351810.0
a 28 10 0 769230.0 338780.0
a 28 27 0 0.0 0.0
a 28 27 0 769230.0 12.0
a 28 27 0 769230.0 20.0
a 28 29 0 769230.0 17.0
a 28 30 0 769230.0 47.0
a 28 31 0 769230.0 6.0
a 28 32 0 769230.0 18.0
a 28 33 0 769230.0 1.0
a 28 37 0 769230.0 1662.0
a 28 46 0 769230.0 1603.0
a 28 29 0 769230.0 12.0
a 28 29 0 0.0 0.0
a 28 29 0 0.0 0.0
a 28 30 0 769230.0 17.0
a 28 30 0 0.0 0.0
a 28 30 0 0.0 0.0
a 28 31 0 769230.0 7.0
a 28 31 0 0.0 0.0
a 28 31 0 0.0 0.0
a 28 32 0 769230.0 16.0
a 28 32 0 0.0 0.0
a 28 32 0 0.0 0.0
a 28 33 0 769230.0 1.0
a 28 33 0 0.0 0.0
a 28 33 0 0.0 0.0
a 28 37 0 769230.0 1488.0
a 28 37 0 0.0 0.0
a 28 37 0 0.0 0.0
a 28 46 0 769230.0 1385.0
a 28 46 0 0.0 0.0
a 28 46 0 0.0 0.0
a 29 6 0 0.0 0.0
a 29 6 0 0.0 0.0
a 29 27 0 0.0 0.0
a 29 28 0 0.0 0.0
a 29 6 0 769230.0 37473.0
a 29 6 0 769230.0 37111.0
a 29 27 0 0.0 0.0
a 29 27 0 769230.0 13.0
a 29 27 0 769230.0 23.0
a 29 28 0 0.0 0.0
a 29 28 0 769230.0 12.0
a 29 28 0 769230.0 17.0
a 29 30 0 769230.0 31.0
a 29 31 0 769230.0 18.0
a 29 32 0 769230.0 18.0
a 29 33 0 769230.0 1.0
a 29 40 0 769230.0 1483.0
a 29 43 0 769230.0 16924.0
a 29 30 0 769230.0 19.0
a 29 30 0 0.0 0.0
a 29 30 0 0.0 0.0
a 29 31 0 769230.0 17.0
a 29 31 0 0.0 0.0
a 29 31 0 0.0 0.0
a 29 32 0 769230.0 16.0
a 29 32 0 0.0 0.0
a 29 32 0 0.0 0.0
a 29 33 0 769230.0 1.0
a 29 33 0 0.0 0.0
a 29 33 0 0.0 0.0
a 29 40 0 1263735.0 1579.0
a 29 40 0 989010.0 0.0
a 29 40 0 1483515.0 0.0
a 29 43 0 769230.0 16458.0
a 29 43 0 0.0 0.0
a 29 43 0 0.0 0.0
a 30 31 0 769230.0 20.0
a 30 24 0 0.0 0.0
a 30 24 0 0.0 0.0
a 30 27 0 0.0 0.0
a 30 28 0 0.0 0.0
a 30 29 0 0.0 0.0
a 30 24 0 769230.0 758666.0
a 30 24 0 769230.0 751232.0
a 30 27 0 0.0 0.0
a 30 27 0 769230.0 13.0
a 30 27 0 769230.0 20.0
a 30 28 0 0.0 0.0
a 30 28 0 769230.0 17.0
a 30 28 0 769230.0 47.0
a 30 29 0 0.0 0.0
a 30 29 0 769230.0 19.0
a 30 29 0 769230.0 31.0
a 30 31 0 769230.0 25.0
a 30 32 0 769230.0 20.0
a 30 33 0 769230.0 1.0
a 30 44 0 769230.0 12838.0
a 30 31 0 0.0 0.0
a 30 31 0 0.0 0.0
a 30 32 0 769230.0 19.0
a 30 32 0 0.0 0.0
a 30 32 0 0.0 0.0
a 30 33 0 769230.0 1.0
a 30 33 0 0.0 0.0
a 30 33 0 0.0 0.0
a 30 44 0 769230.0 12701.0
a 30 44 0 0.0 0.0
a 30 44 0 0.0 0.0
a 31 32 0 769230.0 19.0
a 31 30 0 0.0 0.0
a 31 11 0 0.0 0.0
a 31 13 0 0.0 0.0
a 31 27 0 0.0 0.0
a 31 28 0 0.0 0.0
a 31 29 0 0.0 0.0
a 31 30 0 0.0 0.0
a 31 11 0 0.0 0.0
a 31 11 0 769230.0 343268.0
a 31 11 0 769230.0 346952.0
a 31 13 0 0.0 0.0
a 31 13 0 769230.0 428976.0
a 31 13 0 769230.0 424512.0
a 31 27 0 0.0 0.0
a 31 27 0 769230.0 14.0
a 31 27 0 769230.0 21.0
a 31 28 0 0.0 0.0
a 31 28 0 769230.0 7.0
a 31 28 0 769230.0 6.0
a 31 29 0 0.0 0.0
a 31 29 0 769230.0 17.0
a 31 29 0 769230.0 18.0
a 31 30 0 769230.0 25.0
a 31 30 0 769230.0 20.0
a 31 32 0 769230.0 26.0
a 31 33 0 769230.0 1.0
a 31 46 0 769230.0 1293.0
a 31 32 0 0.0 0.0
a 31 32 0 0.0 0.0
a 31 33 0 769230.0 1.0
a 31 33 0 0.0 0.0
a 31 33 0 0.0 0.0
a 31 46 0 769230.0 1453.0
a 31 46 0 0.0 0.0
a 31 46 0 0.0 0.0
a 32 44 0 769230.0 12705.0
a 32 31 0 0.0 0.0
a 32 2 0 0.0 0.0
a 32 27 0 0.0 0.0
a 32 28 0 0.0 0.0
a 32 29 0 0.0 0.0
a 32 30 0 0.0 0.0
a 32 31 0 0.0 0.0
a 32 2 0 0.0 0.0
a 32 2 0 769230.0 361982.0
a 32 2 0 769230.0 366448.0
a 32 27 0 0.0 0.0
a 32 27 0 769230.0 13.0
a 32 27 0 769230.0 14.0
a 32 28 0 0.0 0.0
a 32 28 0 769230.0 16.0
a 32 28 0 769230.0 18.0
a 32 29 0 0.0 0.0
a 32 29 0 769230.0 16.0
a 32 29 0 769230.0 18.0
a 32 30 0 0.0 0.0
a 32 30 0 769230.0 19.0
a 32 30 0 769230.0 20.0
a 32 31 0 769230.0 26.0
a 32 31 0 769230.0 19.0
a 32 33 0 769230.0 1.0
a 32 44 0 769230.0 12700.0
a 32 33 0 769230.0 1.0
a 32 33 0 0.0 0.0
a 32 33 0 0.0 0.0
a 32 44 0 0.0 0.0
a 32 44 0 0.0 0.0
a 33 27 0 0.0 0.0
a 33 27 0 769230.0 1.0
a 33 28 0 0.0 0.0
a 33 29 0 0.0 0.0
a 33 30 0 0.0 0.0
a 33 31 0 0.0 0.0
a 33 32 0 0.0 0.0
a 33 27 0 0.0 0.0
a 33 27 0 769230.0 1.0
a 33 28 0 0.0 0.0
a 33 28 0 769230.0 1.0
a 33 28 0 769230.0 1.0
a 33 29 0 0.0 0.0
a 33 29 0 769230.0 1.0
a 33 29 0 769230.0 1.0
a 33 30 0 0.0 0.0
a 33 30 0 769230.0 1.0
a 33 30 0 769230.0 1.0
a 33 31 0 0.0 0.0
a 33 31 0 769230.0 1.0
a 33 31 0 769230.0 1.0
a 33 32 0 0.0 0.0
a 33 32 0 769230.0 1.0
a 33 32 0 769230.0 1.0
a 34 35 0 769230.0 15.0
a 34 17 0 0.0 0.0
a 34 17 0 769230.0 83698.0
a 34 17 0 769230.0 84536.0
a 34 17 0 0.0 0.0
a 34 35 0 769230.0 24.0
a 34 36 0 769230.0 1.0
a 34 37 0 769230.0 574570.0
a 34 45 0 769230.0 1896.0
a 34 35 0 0.0 0.0
a 34 35 0 0.0 0.0
a 34 36 0 769230.0 1.0
a 34 36 0 0.0 0.0
a 34 36 0 0.0 0.0
a 34 37 0 769230.0 567476.0
a 34 37 0 0.0 0.0
a 34 37 0 0.0 0.0
a 34 45 0 769230.0 1893.0
a 34 45 0 0.0 0.0
a 34 45 0 0.0 0.0
a 35 36 0 769230.0 2.0
a 35 34 0 0.0 0.0
a 35 9 0 0.0 0.0
a 35 13 0 0.0 0.0
a 35 34 0 0.0 0.0
a 35 9 0 0.0 0.0
a 35 9 0 769230.0 240941.0
a 35 9 0 769230.0 238194.0
a 35 13 0 0.0 0.0
a 35 13 0 769230.0 143644.0
a 35 13 0 769230.0 141666.0
a 35 34 0 769230.0 24.0
a 35 34 0 769230.0 15.0
a 35 36 0 769230.0 2.0
a 35 48 0 769230.0 181343.0
a 35 36 0 0.0 0.0
a 35 36 0 0.0 0.0
a 35 48 0 857142.0 181143.0
a 35 48 0 175824.0 0.0
a 35 48 0 263736.0 0.0
a 36 35 0 0.0 0.0
a 36 34 0 0.0 0.0
a 36 35 0 0.0 0.0
a 36 34 0 0.0 0.0
a 36 34 0 769230.0 1.0
a 36 34 0 769230.0 1.0
a 36 35 0 769230.0 2.0
a 36 35 0 769230.0 2.0
a 37 38 0 769230.0 16.0
a 37 6 0 0.0 0.0
a 37 28 0 0.0 0.0
a 37 34 0 0.0 0.0
a 37 6 0 0.0 0.0
a 37 6 0 769230.0 36925.0
a 37 6 0 769230.0 36947.0
a 37 28 0 0.0 0.0
a 37 28 0 769230.0 1488.0
a 37 28 0 769230.0 1662.0
a 37 34 0 0.0 0.0
a 37 34 0 769230.0 567476.0
a 37 34 0 769230.0 574570.0
a 37 38 0 769230.0 56.0
a 37 39 0 769230.0 38.0
a 37 40 0 769230.0 21.0
a 37 41 0 769230.0 1.0
a 37 41 0 0.0 0.0
a 37 46 0 769230.0 198.0
a 37 38 0 0.0 0.0
a 37 38 0 0.0 0.0
a 37 39 0 769230.0 18.0
a 37 39 0 0.0 0.0
a 37 39 0 0.0 0.0
a 37 40 0 769230.0 16.0
a 37 40 0 0.0 0.0
a 37 40 0 0.0 0.0
a 37 41 0 769230.0 1.0
a 37 41 0 0.0 0.0
a 37 46 0 769230.0 213.0
a 37 46 0 0.0 0.0
a 37 46 0 0.0 0.0
a 38 39 0 769230.0 22.0
a 38 37 0 0.0 0.0
a 38 11 0 0.0 0.0
a 38 13 0 0.0 0.0
a 38 37 0 0.0 0.0
a 38 11 0 0.0 0.0
a 38 11 0 769230.0 343855.0
a 38 11 0 769230.0 341390.0
a 38 13 0 0.0 0.0
a 38 13 0 769230.0 427438.0
a 38 13 0 769230.0 443283.0
a 38 37 0 769230.0 56.0
a 38 37 0 769230.0 16.0
a 38 39 0 769230.0 33.0
a 38 40 0 769230.0 22.0
a 38 41 0 769230.0 1.0
a 38 43 0 769230.0 17266.0
a 38 46 0 769230.0 198.0
a 38 39 0 0.0 0.0
a 38 39 0 0.0 0.0
a 38 40 0 769230.0 19.0
a 38 40 0 0.0 0.0
a 38 40 0 0.0 0.0
a 38 41 0 769230.0 1.0
a 38 41 0 0.0 0.0
a 38 41 0 0.0 0.0
a 38 43 0 769230.0 17215.0
a 38 43 0 0.0 0.0
a 38 43 0 0.0 0.0
a 38 46 0 769230.0 197.0
a 38 46 0 0.0 0.0
a 38 46 0 0.0 0.0
a 39 40 0 769230.0 23.0
a 39 38 0 0.0 0.0
a 39 1 0 0.0 0.0
a 39 16 0 0.0 0.0
a 39 37 0 0.0 0.0
a 39 38 0 0.0 0.0
a 39 1 0 0.0 0.0
a 39 1 0 769230.0 373979.0
a 39 1 0 769230.0 367472.0
a 39 16 0 0.0 0.0
a 39 16 0 769230.0 492842.0
a 39 16 0 769230.0 486672.0
a 39 37 0 0.0 0.0
a 39 37 0 769230.0 18.0
a 39 37 0 769230.0 38.0
a 39 38 0 769230.0 33.0
a 39 38 0 769230.0 22.0
a 39 40 0 769230.0 40.0
a 39 41 0 769230.0 2.0
a 39 44 0 725274.0 14008.0
a 39 40 0 0.0 0.0
a 39 40 0 0.0 0.0
a 39 41 0 769230.0 2.0
a 39 41 0 0.0 0.0
a 39 41 0 0.0 0.0
a 39 44 0 747252.0 13988.0
a 39 44 0 0.0 0.0
a 39 44 0 -65934.0 0.0
a 40 46 0 769230.0 200.0
a 40 39 0 0.0 0.0
a 40 19 0 0.0 0.0
a 40 29 0 0.0 0.0
a 40 37 0 0.0 0.0
a 40 38 0 0.0 0.0
a 40 39 0 0.0 0.0
a 40 19 0 0.0 0.0
a 40 19 0 769230.0 40280.0
a 40 19 0 769230.0 40495.0
a 40 29 0 -494505.0 0.0
a 40 29 0 -219780.0 1579.0
a 40 29 0 -714285.0 1483.0
a 40 37 0 0.0 0.0
a 40 37 0 769230.0 16.0
a 40 37 0 769230.0 21.0
a 40 38 0 0.0 0.0
a 40 38 0 769230.0 19.0
a 40 38 0 769230.0 22.0
a 40 39 0 769230.0 40.0
a 40 39 0 769230.0 23.0
a 40 41 0 769230.0 1.0
a 40 46 0 769230.0 196.0
a 40 41 0 769230.0 1.0
a 40 41 0 0.0 0.0
a 40 41 0 0.0 0.0
a 40 46 0 0.0 0.0
a 40 46 0 0.0 0.0
a 41 37 0 0.0 0.0
a 41 37 0 769230.0 1.0
a 41 38 0 0.0 0.0
a 41 39 0 0.0 0.0
a 41 40 0 0.0 0.0
a 41 37 0 0.0 0.0
a 41 37 0 769230.0 1.0
a 41 38 0 0.0 0.0
a 41 38 0 769230.0 1.0
a 41 38 0 769230.0 1.0
a 41 39 0 0.0 0.0
a 41 39 0 769230.0 2.0
a 41 39 0 769230.0 2.0
a 41 40 0 0.0 0.0
a 41 40 0 769230.0 1.0
a 41 40 0 769230.0 1.0
a 42 0 0 0.0 0.0
a 42 0 0 769230.0 71328.0
a 42 14 0 0.0 0.0
a 42 0 0 0.0 0.0
a 42 0 0 769230.0 71899.0
a 42 14 0 0.0 0.0
a 42 14 0 769230.0 10987.0
a 42 14 0 769230.0 11014.0
a 43 27 0 0.0 0.0
a 43 27 0 769230.0 16420.0
a 43 29 0 0.0 0.0
a 43 38 0 0.0 0.0
a 43 27 0 0.0 0.0
a 43 27 0 769230.0 16399.0
a 43 29 0 0.0 0.0
a 43 29 0 769230.0 16458.0
a 43 29 0 769230.0 16924.0
a 43 38 0 0.0 0.0
a 43 38 0 769230.0 17215.0
a 43 38 0 769230.0 17266.0
a 44 32 0 0.0 0.0
a 44 30 0 0.0 0.0
a 44 32 0 0.0 0.0
a 44 39 0 43956.0 0.0
a 44 30 0 0.0 0.0
a 44 30 0 769230.0 12701.0
a 44 30 0 769230.0 12838.0
a 44 32 0 769230.0 12700.0
a 44 32 0 769230.0 12705.0
a 44 39 0 21978.0 0.0
a 44 39 0 769230.0 13988.0
a 44 39 0 835164.0 14008.0
a 45 17 0 0.0 0.0
a 45 17 0 0.0 0.0
a 45 34 0 0.0 0.0
a 45 17 0 769230.0 84290.0
a 45 17 0 769230.0 82541.0
a 45 34 0 0.0 0.0
a 45 34 0 769230.0 1893.0
a 45 34 0 769230.0 1896.0
a 46 40 0 0.0 0.0
a 46 28 0 0.0 0.0
a 46 31 0 0.0 0.0
a 46 37 0 0.0 0.0
a 46 38 0 0.0 0.0
a 46 40 0 0.0 0.0
a 46 28 0 0.0 0.0
a 46 28 0 769230.0 1385.0
a 46 28 0 769230.0 1603.0
a 46 31 0 0.0 0.0
a 46 31 0 769230.0 1453.0
a 46 31 0 769230.0 1293.0
a 46 37 0 0.0 0.0
a 46 37 0 769230.0 213.0
a 46 37 0 769230.0 198.0
a 46 38 0 0.0 0.0
a 46 38 0 769230.0 197.0
a 46 38 0 769230.0 198.0
a 46 40 0 769230.0 196.0
a 46 40 0 769230.0 200.0
a 47 48 0 769230.0 4.0
a 47 14 0 0.0 0.0
a 47 24 0 0.0 0.0
a 47 25 0 0.0 0.0
a 47 26 0 1362636.0 0.0
a 47 14 0 -681318.0 0.0
a 47 14 0 -593406.0 320017.0
a 47 14 0 -1274724.0 321204.0
a 47 24 0 0.0 0.0
a 47 24 0 769230.0 4.0
a 47 24 0 769230.0 4.0
a 47 25 0 0.0 0.0
a 47 25 0 769230.0 5.0
a 47 25 0 769230.0 6.0
a 47 26 0 681318.0 0.0
a 47 26 0 769230.0 1.0
a 47 26 0 2813184.0 1.0
a 47 48 0 769230.0 4.0
a 47 48 0 0.0 0.0
a 47 48 0 0.0 0.0
a 48 47 0 0.0 0.0
a 48 24 0 0.0 0.0
a 48 25 0 0.0 0.0
a 48 26 0 263736.0 0.0
a 48 35 0 0.0 0.0
a 48 47 0 0.0 0.0
a 48 24 0 0.0 0.0
a 48 24 0 769230.0 4.0
a 48 24 0 769230.0 4.0
a 48 25 0 0.0 0.0
a 48 25 0 769230.0 5.0
a 48 25 0 769230.0 7.0
a 48 26 0 0.0 0.0
a 48 26 0 769230.0 1.0
a 48 26 0 857142.0 1.0
a 48 35 0 -87912.0 0.0
a 48 35 0 593406.0 181143.0
a 48 35 0 505494.0 181343.0
a 48 47 0 769230.0 4.0
a 48 47 0 769230.0 4.0
